p cnf 441 1
441 0
w 1 0.836984
w 2 1 1
w 2 -1 0
w 3 2 0
w 3 -2 1
w 4 3 1
w 4 -3 0
w 5 4 0
w 5 -4 1
w 6 5 1
w 6 -5 0
w 7 6 1
w 7 -6 0
w 8 7 1
w 8 -7 0
w 9 8 1
w 9 -8 0
w 10 9 0.112042
w 10 -9 0.899584
w 11 10 0
w 11 -10 1
w 12 11 0
w 12 -11 1
w 13 12 0
w 13 -12 1
w 14 13 0.740647
w 14 -13 0.85678
w 15 14 1
w 15 -14 0
w 16 15 0
w 16 -15 1
w 17 16 0
w 17 -16 1
w 18 17 1
w 18 -17 0
w 19 18 1
w 19 -18 0
w 20 19 0
w 20 -19 1
w 21 20 0
w 21 -20 1
w 22 1 0
w 22 -1 1
w 23 22 2 0
w 23 22 -2 1
w 23 -22 2 1
w 23 -22 -2 1
w 24 23 3 1
w 24 23 -3 1
w 24 -23 3 0
w 24 -23 -3 1
w 25 24 4 0
w 25 24 -4 1
w 25 -24 4 1
w 25 -24 -4 0
w 26 25 5 0.708071
w 26 25 -5 0.158902
w 26 -25 5 0.193012
w 26 -25 -5 0.740377
w 27 26 6 0.442164
w 27 26 -6 0.948252
w 27 -26 6 0.684231
w 27 -26 -6 0.204339
w 28 27 7 0
w 28 27 -7 1
w 28 -27 7 1
w 28 -27 -7 0
w 29 28 8 0
w 29 28 -8 0
w 29 -28 8 1
w 29 -28 -8 1
w 30 29 9 1
w 30 29 -9 0
w 30 -29 9 0
w 30 -29 -9 1
w 31 30 10 0
w 31 30 -10 0
w 31 -30 10 0
w 31 -30 -10 1
w 32 31 11 1
w 32 31 -11 0
w 32 -31 11 0
w 32 -31 -11 1
w 33 32 12 0
w 33 32 -12 1
w 33 -32 12 0
w 33 -32 -12 0
w 34 33 13 1
w 34 33 -13 0
w 34 -33 13 0
w 34 -33 -13 1
w 35 34 14 0.962698
w 35 34 -14 0.992688
w 35 -34 14 0.4046
w 35 -34 -14 0.264502
w 36 35 15 0
w 36 35 -15 1
w 36 -35 15 0
w 36 -35 -15 1
w 37 36 16 0
w 37 36 -16 1
w 37 -36 16 0
w 37 -36 -16 0
w 38 37 17 1
w 38 37 -17 0
w 38 -37 17 1
w 38 -37 -17 1
w 39 38 18 0
w 39 38 -18 1
w 39 -38 18 1
w 39 -38 -18 0
w 40 39 19 0
w 40 39 -19 1
w 40 -39 19 0
w 40 -39 -19 0
w 41 40 20 0.487116
w 41 40 -20 0.0956757
w 41 -40 20 0.907628
w 41 -40 -20 0.891716
w 42 41 21 1
w 42 41 -21 0
w 42 -41 21 0
w 42 -41 -21 0
w 43 22 0.868645
w 43 -22 0.702183
w 44 43 23 0.0582769
w 44 43 -23 0.316576
w 44 -43 23 0.399651
w 44 -43 -23 0.131244
w 45 44 24 0
w 45 44 -24 0
w 45 -44 24 1
w 45 -44 -24 0
w 46 45 25 1
w 46 45 -25 0
w 46 -45 25 1
w 46 -45 -25 0
w 47 46 26 0
w 47 46 -26 1
w 47 -46 26 1
w 47 -46 -26 1
w 48 47 27 0
w 48 47 -27 0
w 48 -47 27 1
w 48 -47 -27 0
w 49 48 28 0
w 49 48 -28 0
w 49 -48 28 1
w 49 -48 -28 0
w 50 49 29 0
w 50 49 -29 1
w 50 -49 29 0
w 50 -49 -29 1
w 51 50 30 0.819997
w 51 50 -30 0.40813
w 51 -50 30 0.72951
w 51 -50 -30 0.208203
w 52 51 31 0
w 52 51 -31 0
w 52 -51 31 1
w 52 -51 -31 1
w 53 52 32 0.70023
w 53 52 -32 0.699222
w 53 -52 32 0.327826
w 53 -52 -32 0.352763
w 54 53 33 1
w 54 53 -33 0
w 54 -53 33 0
w 54 -53 -33 0
w 55 54 34 0
w 55 54 -34 1
w 55 -54 34 1
w 55 -54 -34 0
w 56 55 35 0
w 56 55 -35 1
w 56 -55 35 0
w 56 -55 -35 1
w 57 56 36 0
w 57 56 -36 0
w 57 -56 36 1
w 57 -56 -36 1
w 58 57 37 0.371888
w 58 57 -37 0.858544
w 58 -57 37 0.723618
w 58 -57 -37 0.512222
w 59 58 38 1
w 59 58 -38 0
w 59 -58 38 0
w 59 -58 -38 0
w 60 59 39 1
w 60 59 -39 0
w 60 -59 39 0
w 60 -59 -39 1
w 61 60 40 0
w 61 60 -40 0
w 61 -60 40 1
w 61 -60 -40 0
w 62 61 41 1
w 62 61 -41 1
w 62 -61 41 0
w 62 -61 -41 0
w 63 62 42 0
w 63 62 -42 1
w 63 -62 42 0
w 63 -62 -42 1
w 64 43 0.0705429
w 64 -43 0.319229
w 65 64 44 0
w 65 64 -44 0
w 65 -64 44 1
w 65 -64 -44 0
w 66 65 45 0.155479
w 66 65 -45 0.259357
w 66 -65 45 0.57049
w 66 -65 -45 0.201143
w 67 66 46 1
w 67 66 -46 0
w 67 -66 46 0
w 67 -66 -46 1
w 68 67 47 0
w 68 67 -47 0
w 68 -67 47 1
w 68 -67 -47 0
w 69 68 48 1
w 69 68 -48 1
w 69 -68 48 1
w 69 -68 -48 0
w 70 69 49 0.949546
w 70 69 -49 0.309344
w 70 -69 49 0.824857
w 70 -69 -49 0.268774
w 71 70 50 0.407622
w 71 70 -50 0.293055
w 71 -70 50 0.903329
w 71 -70 -50 0.20183
w 72 71 51 1
w 72 71 -51 0
w 72 -71 51 0
w 72 -71 -51 0
w 73 72 52 1
w 73 72 -52 1
w 73 -72 52 0
w 73 -72 -52 1
w 74 73 53 1
w 74 73 -53 0
w 74 -73 53 1
w 74 -73 -53 0
w 75 74 54 0.194733
w 75 74 -54 0.823549
w 75 -74 54 0.0476636
w 75 -74 -54 0.683593
w 76 75 55 0
w 76 75 -55 1
w 76 -75 55 1
w 76 -75 -55 0
w 77 76 56 0.475198
w 77 76 -56 0.0344558
w 77 -76 56 0.194969
w 77 -76 -56 0.378527
w 78 77 57 1
w 78 77 -57 1
w 78 -77 57 0
w 78 -77 -57 0
w 79 78 58 0
w 79 78 -58 1
w 79 -78 58 1
w 79 -78 -58 0
w 80 79 59 0
w 80 79 -59 0
w 80 -79 59 0
w 80 -79 -59 1
w 81 80 60 0
w 81 80 -60 0
w 81 -80 60 0
w 81 -80 -60 1
w 82 81 61 1
w 82 81 -61 0
w 82 -81 61 0
w 82 -81 -61 0
w 83 82 62 0
w 83 82 -62 1
w 83 -82 62 1
w 83 -82 -62 1
w 84 83 63 1
w 84 83 -63 1
w 84 -83 63 0
w 84 -83 -63 0
w 85 64 0.983999
w 85 -64 0.147001
w 86 85 65 1
w 86 85 -65 1
w 86 -85 65 0
w 86 -85 -65 1
w 87 86 66 0.618962
w 87 86 -66 0.671098
w 87 -86 66 0.826219
w 87 -86 -66 0.273101
w 88 87 67 0
w 88 87 -67 1
w 88 -87 67 1
w 88 -87 -67 1
w 89 88 68 0
w 89 88 -68 1
w 89 -88 68 1
w 89 -88 -68 1
w 90 89 69 0.679718
w 90 89 -69 0.402933
w 90 -89 69 0.175725
w 90 -89 -69 0.313721
w 91 90 70 0
w 91 90 -70 1
w 91 -90 70 0
w 91 -90 -70 0
w 92 91 71 1
w 92 91 -71 1
w 92 -91 71 1
w 92 -91 -71 0
w 93 92 72 0
w 93 92 -72 1
w 93 -92 72 0
w 93 -92 -72 0
w 94 93 73 0.552635
w 94 93 -73 0.436363
w 94 -93 73 0.659678
w 94 -93 -73 0.031319
w 95 94 74 0
w 95 94 -74 1
w 95 -94 74 1
w 95 -94 -74 0
w 96 95 75 0
w 96 95 -75 1
w 96 -95 75 0
w 96 -95 -75 0
w 97 96 76 0.820221
w 97 96 -76 0.581751
w 97 -96 76 0.0790641
w 97 -96 -76 0.549064
w 98 97 77 0
w 98 97 -77 0
w 98 -97 77 1
w 98 -97 -77 0
w 99 98 78 0
w 99 98 -78 0
w 99 -98 78 0
w 99 -98 -78 1
w 100 99 79 1
w 100 99 -79 0
w 100 -99 79 1
w 100 -99 -79 1
w 101 100 80 1
w 101 100 -80 1
w 101 -100 80 0
w 101 -100 -80 1
w 102 101 81 0
w 102 101 -81 1
w 102 -101 81 0
w 102 -101 -81 1
w 103 102 82 1
w 103 102 -82 1
w 103 -102 82 1
w 103 -102 -82 0
w 104 103 83 1
w 104 103 -83 0
w 104 -103 83 1
w 104 -103 -83 0
w 105 104 84 1
w 105 104 -84 0
w 105 -104 84 1
w 105 -104 -84 0
w 106 85 0
w 106 -85 1
w 107 106 86 0
w 107 106 -86 0
w 107 -106 86 1
w 107 -106 -86 0
w 108 107 87 0
w 108 107 -87 0
w 108 -107 87 1
w 108 -107 -87 0
w 109 108 88 0
w 109 108 -88 0
w 109 -108 88 0
w 109 -108 -88 1
w 110 109 89 1
w 110 109 -89 1
w 110 -109 89 1
w 110 -109 -89 0
w 111 110 90 1
w 111 110 -90 0
w 111 -110 90 0
w 111 -110 -90 1
w 112 111 91 0
w 112 111 -91 0
w 112 -111 91 1
w 112 -111 -91 0
w 113 112 92 1
w 113 112 -92 0
w 113 -112 92 1
w 113 -112 -92 0
w 114 113 93 0.458748
w 114 113 -93 0.0705013
w 114 -113 93 0.0539124
w 114 -113 -93 0.542802
w 115 114 94 0
w 115 114 -94 1
w 115 -114 94 1
w 115 -114 -94 0
w 116 115 95 1
w 116 115 -95 1
w 116 -115 95 1
w 116 -115 -95 0
w 117 116 96 0.676183
w 117 116 -96 0.313413
w 117 -116 96 0.558436
w 117 -116 -96 0.830093
w 118 117 97 0.961371
w 118 117 -97 0.345703
w 118 -117 97 0.663211
w 118 -117 -97 0.64541
w 119 118 98 0
w 119 118 -98 1
w 119 -118 98 1
w 119 -118 -98 1
w 120 119 99 1
w 120 119 -99 0
w 120 -119 99 0
w 120 -119 -99 0
w 121 120 100 1
w 121 120 -100 0
w 121 -120 100 1
w 121 -120 -100 1
w 122 121 101 1
w 122 121 -101 0
w 122 -121 101 0
w 122 -121 -101 1
w 123 122 102 0.957374
w 123 122 -102 0.985477
w 123 -122 102 0.220745
w 123 -122 -102 0.515811
w 124 123 103 0.105391
w 124 123 -103 0.477182
w 124 -123 103 0.161274
w 124 -123 -103 0.768602
w 125 124 104 0
w 125 124 -104 0
w 125 -124 104 0
w 125 -124 -104 1
w 126 125 105 0
w 126 125 -105 1
w 126 -125 105 1
w 126 -125 -105 0
w 127 106 0.955076
w 127 -106 0.978431
w 128 127 107 0
w 128 127 -107 0
w 128 -127 107 0
w 128 -127 -107 1
w 129 128 108 0
w 129 128 -108 0
w 129 -128 108 0
w 129 -128 -108 1
w 130 129 109 1
w 130 129 -109 1
w 130 -129 109 0
w 130 -129 -109 1
w 131 130 110 0
w 131 130 -110 1
w 131 -130 110 0
w 131 -130 -110 0
w 132 131 111 1
w 132 131 -111 0
w 132 -131 111 1
w 132 -131 -111 1
w 133 132 112 0.0728363
w 133 132 -112 0.816331
w 133 -132 112 0.927223
w 133 -132 -112 0.0279123
w 134 133 113 0.481199
w 134 133 -113 0.898835
w 134 -133 113 0.678604
w 134 -133 -113 0.756089
w 135 134 114 1
w 135 134 -114 1
w 135 -134 114 0
w 135 -134 -114 0
w 136 135 115 1
w 136 135 -115 1
w 136 -135 115 1
w 136 -135 -115 0
w 137 136 116 0
w 137 136 -116 0
w 137 -136 116 0
w 137 -136 -116 1
w 138 137 117 0
w 138 137 -117 0
w 138 -137 117 0
w 138 -137 -117 1
w 139 138 118 1
w 139 138 -118 0
w 139 -138 118 0
w 139 -138 -118 1
w 140 139 119 0.828938
w 140 139 -119 0.770687
w 140 -139 119 0.716583
w 140 -139 -119 0.507542
w 141 140 120 0
w 141 140 -120 1
w 141 -140 120 0
w 141 -140 -120 0
w 142 141 121 0
w 142 141 -121 1
w 142 -141 121 0
w 142 -141 -121 0
w 143 142 122 1
w 143 142 -122 0
w 143 -142 122 1
w 143 -142 -122 1
w 144 143 123 0
w 144 143 -123 1
w 144 -143 123 1
w 144 -143 -123 0
w 145 144 124 0
w 145 144 -124 0
w 145 -144 124 1
w 145 -144 -124 0
w 146 145 125 1
w 146 145 -125 1
w 146 -145 125 0
w 146 -145 -125 0
w 147 146 126 1
w 147 146 -126 0
w 147 -146 126 1
w 147 -146 -126 1
w 148 127 0
w 148 -127 1
w 149 148 128 1
w 149 148 -128 1
w 149 -148 128 0
w 149 -148 -128 1
w 150 149 129 0
w 150 149 -129 1
w 150 -149 129 1
w 150 -149 -129 0
w 151 150 130 1
w 151 150 -130 1
w 151 -150 130 0
w 151 -150 -130 1
w 152 151 131 1
w 152 151 -131 0
w 152 -151 131 0
w 152 -151 -131 1
w 153 152 132 1
w 153 152 -132 1
w 153 -152 132 1
w 153 -152 -132 0
w 154 153 133 0
w 154 153 -133 1
w 154 -153 133 1
w 154 -153 -133 1
w 155 154 134 0
w 155 154 -134 0
w 155 -154 134 1
w 155 -154 -134 0
w 156 155 135 0
w 156 155 -135 1
w 156 -155 135 1
w 156 -155 -135 0
w 157 156 136 0
w 157 156 -136 1
w 157 -156 136 0
w 157 -156 -136 0
w 158 157 137 1
w 158 157 -137 0
w 158 -157 137 1
w 158 -157 -137 0
w 159 158 138 0
w 159 158 -138 1
w 159 -158 138 0
w 159 -158 -138 0
w 160 159 139 1
w 160 159 -139 0
w 160 -159 139 1
w 160 -159 -139 1
w 161 160 140 0.429386
w 161 160 -140 0.907242
w 161 -160 140 0.190902
w 161 -160 -140 0.312087
w 162 161 141 0.698694
w 162 161 -141 0.265587
w 162 -161 141 0.605861
w 162 -161 -141 0.106055
w 163 162 142 0.784222
w 163 162 -142 0.402157
w 163 -162 142 0.660606
w 163 -162 -142 0.760181
w 164 163 143 0.605269
w 164 163 -143 0.806049
w 164 -163 143 0.355828
w 164 -163 -143 0.727771
w 165 164 144 1
w 165 164 -144 0
w 165 -164 144 1
w 165 -164 -144 1
w 166 165 145 0
w 166 165 -145 0
w 166 -165 145 0
w 166 -165 -145 1
w 167 166 146 0
w 167 166 -146 1
w 167 -166 146 1
w 167 -166 -146 0
w 168 167 147 0.616214
w 168 167 -147 0.753207
w 168 -167 147 0.152939
w 168 -167 -147 0.222076
w 169 148 0.0824818
w 169 -148 0.00629765
w 170 169 149 0
w 170 169 -149 0
w 170 -169 149 1
w 170 -169 -149 1
w 171 170 150 0
w 171 170 -150 0
w 171 -170 150 0
w 171 -170 -150 1
w 172 171 151 0.615653
w 172 171 -151 0.62878
w 172 -171 151 0.861349
w 172 -171 -151 0.756165
w 173 172 152 0
w 173 172 -152 1
w 173 -172 152 1
w 173 -172 -152 0
w 174 173 153 0
w 174 173 -153 0
w 174 -173 153 1
w 174 -173 -153 1
w 175 174 154 0
w 175 174 -154 0
w 175 -174 154 1
w 175 -174 -154 1
w 176 175 155 0
w 176 175 -155 0
w 176 -175 155 0
w 176 -175 -155 1
w 177 176 156 0
w 177 176 -156 1
w 177 -176 156 1
w 177 -176 -156 0
w 178 177 157 0.552719
w 178 177 -157 0.241018
w 178 -177 157 0.534107
w 178 -177 -157 0.414068
w 179 178 158 0.0290179
w 179 178 -158 0.150212
w 179 -178 158 0.899227
w 179 -178 -158 0.245937
w 180 179 159 0
w 180 179 -159 0
w 180 -179 159 0
w 180 -179 -159 1
w 181 180 160 0
w 181 180 -160 1
w 181 -180 160 0
w 181 -180 -160 1
w 182 181 161 0.929704
w 182 181 -161 0.606604
w 182 -181 161 0.202058
w 182 -181 -161 0.386939
w 183 182 162 0
w 183 182 -162 1
w 183 -182 162 1
w 183 -182 -162 1
w 184 183 163 1
w 184 183 -163 0
w 184 -183 163 0
w 184 -183 -163 0
w 185 184 164 0
w 185 184 -164 0
w 185 -184 164 0
w 185 -184 -164 1
w 186 185 165 0
w 186 185 -165 1
w 186 -185 165 1
w 186 -185 -165 0
w 187 186 166 0
w 187 186 -166 1
w 187 -186 166 0
w 187 -186 -166 0
w 188 187 167 0
w 188 187 -167 1
w 188 -187 167 0
w 188 -187 -167 1
w 189 188 168 0.510569
w 189 188 -168 0.951599
w 189 -188 168 0.382151
w 189 -188 -168 0.171814
w 190 169 0.905803
w 190 -169 0.385778
w 191 190 170 1
w 191 190 -170 1
w 191 -190 170 1
w 191 -190 -170 0
w 192 191 171 0.736517
w 192 191 -171 0.383051
w 192 -191 171 0.320267
w 192 -191 -171 0.292551
w 193 192 172 0.252713
w 193 192 -172 0.589785
w 193 -192 172 0.787176
w 193 -192 -172 0.996869
w 194 193 173 0
w 194 193 -173 1
w 194 -193 173 1
w 194 -193 -173 0
w 195 194 174 1
w 195 194 -174 0
w 195 -194 174 0
w 195 -194 -174 0
w 196 195 175 0
w 196 195 -175 1
w 196 -195 175 0
w 196 -195 -175 1
w 197 196 176 1
w 197 196 -176 1
w 197 -196 176 1
w 197 -196 -176 0
w 198 197 177 1
w 198 197 -177 0
w 198 -197 177 1
w 198 -197 -177 1
w 199 198 178 1
w 199 198 -178 0
w 199 -198 178 1
w 199 -198 -178 1
w 200 199 179 1
w 200 199 -179 0
w 200 -199 179 0
w 200 -199 -179 0
w 201 200 180 1
w 201 200 -180 0
w 201 -200 180 1
w 201 -200 -180 1
w 202 201 181 0.0969226
w 202 201 -181 0.518872
w 202 -201 181 0.412996
w 202 -201 -181 0.397384
w 203 202 182 0.323299
w 203 202 -182 0.661406
w 203 -202 182 0.0244577
w 203 -202 -182 0.790622
w 204 203 183 0.0762119
w 204 203 -183 0.994462
w 204 -203 183 0.673175
w 204 -203 -183 0.448234
w 205 204 184 1
w 205 204 -184 0
w 205 -204 184 0
w 205 -204 -184 0
w 206 205 185 1
w 206 205 -185 0
w 206 -205 185 0
w 206 -205 -185 1
w 207 206 186 1
w 207 206 -186 1
w 207 -206 186 0
w 207 -206 -186 1
w 208 207 187 1
w 208 207 -187 0
w 208 -207 187 1
w 208 -207 -187 0
w 209 208 188 0
w 209 208 -188 0
w 209 -208 188 1
w 209 -208 -188 1
w 210 209 189 0
w 210 209 -189 0
w 210 -209 189 0
w 210 -209 -189 1
w 211 190 1
w 211 -190 0
w 212 211 191 0
w 212 211 -191 0
w 212 -211 191 1
w 212 -211 -191 1
w 213 212 192 1
w 213 212 -192 1
w 213 -212 192 1
w 213 -212 -192 0
w 214 213 193 1
w 214 213 -193 0
w 214 -213 193 0
w 214 -213 -193 0
w 215 214 194 0.692265
w 215 214 -194 0.0213326
w 215 -214 194 0.966381
w 215 -214 -194 0.206901
w 216 215 195 0.649764
w 216 215 -195 0.745996
w 216 -215 195 0.562695
w 216 -215 -195 0.308912
w 217 216 196 0
w 217 216 -196 1
w 217 -216 196 1
w 217 -216 -196 0
w 218 217 197 1
w 218 217 -197 0
w 218 -217 197 0
w 218 -217 -197 0
w 219 218 198 1
w 219 218 -198 0
w 219 -218 198 0
w 219 -218 -198 0
w 220 219 199 0
w 220 219 -199 1
w 220 -219 199 1
w 220 -219 -199 1
w 221 220 200 1
w 221 220 -200 1
w 221 -220 200 1
w 221 -220 -200 0
w 222 221 201 1
w 222 221 -201 0
w 222 -221 201 1
w 222 -221 -201 1
w 223 222 202 0
w 223 222 -202 0
w 223 -222 202 1
w 223 -222 -202 0
w 224 223 203 0
w 224 223 -203 1
w 224 -223 203 0
w 224 -223 -203 0
w 225 224 204 0
w 225 224 -204 0
w 225 -224 204 0
w 225 -224 -204 1
w 226 225 205 1
w 226 225 -205 0
w 226 -225 205 1
w 226 -225 -205 1
w 227 226 206 0
w 227 226 -206 0
w 227 -226 206 1
w 227 -226 -206 1
w 228 227 207 0
w 228 227 -207 0
w 228 -227 207 1
w 228 -227 -207 1
w 229 228 208 1
w 229 228 -208 1
w 229 -228 208 1
w 229 -228 -208 0
w 230 229 209 1
w 230 229 -209 1
w 230 -229 209 0
w 230 -229 -209 1
w 231 230 210 1
w 231 230 -210 0
w 231 -230 210 1
w 231 -230 -210 1
w 232 211 0
w 232 -211 1
w 233 232 212 0.547653
w 233 232 -212 0.783179
w 233 -232 212 0.112368
w 233 -232 -212 0.068734
w 234 233 213 1
w 234 233 -213 1
w 234 -233 213 0
w 234 -233 -213 1
w 235 234 214 1
w 235 234 -214 1
w 235 -234 214 0
w 235 -234 -214 1
w 236 235 215 0
w 236 235 -215 0
w 236 -235 215 1
w 236 -235 -215 1
w 237 236 216 0
w 237 236 -216 0
w 237 -236 216 1
w 237 -236 -216 0
w 238 237 217 0.382303
w 238 237 -217 0.549054
w 238 -237 217 0.59345
w 238 -237 -217 0.0843924
w 239 238 218 0
w 239 238 -218 1
w 239 -238 218 0
w 239 -238 -218 1
w 240 239 219 1
w 240 239 -219 0
w 240 -239 219 0
w 240 -239 -219 1
w 241 240 220 1
w 241 240 -220 1
w 241 -240 220 0
w 241 -240 -220 1
w 242 241 221 0
w 242 241 -221 1
w 242 -241 221 0
w 242 -241 -221 1
w 243 242 222 0.580062
w 243 242 -222 0.398108
w 243 -242 222 0.0535864
w 243 -242 -222 0.451652
w 244 243 223 1
w 244 243 -223 0
w 244 -243 223 0
w 244 -243 -223 0
w 245 244 224 0.845018
w 245 244 -224 0.012498
w 245 -244 224 0.550392
w 245 -244 -224 0.745167
w 246 245 225 0
w 246 245 -225 1
w 246 -245 225 0
w 246 -245 -225 0
w 247 246 226 1
w 247 246 -226 0
w 247 -246 226 0
w 247 -246 -226 0
w 248 247 227 0.835371
w 248 247 -227 0.121648
w 248 -247 227 0.994193
w 248 -247 -227 0.892127
w 249 248 228 1
w 249 248 -228 0
w 249 -248 228 0
w 249 -248 -228 0
w 250 249 229 1
w 250 249 -229 0
w 250 -249 229 1
w 250 -249 -229 1
w 251 250 230 0.0422954
w 251 250 -230 0.789908
w 251 -250 230 0.328599
w 251 -250 -230 0.787463
w 252 251 231 0
w 252 251 -231 0
w 252 -251 231 1
w 252 -251 -231 0
w 253 232 0
w 253 -232 1
w 254 253 233 0
w 254 253 -233 0
w 254 -253 233 0
w 254 -253 -233 1
w 255 254 234 0.487578
w 255 254 -234 0.206802
w 255 -254 234 0.875253
w 255 -254 -234 0.0618335
w 256 255 235 1
w 256 255 -235 0
w 256 -255 235 1
w 256 -255 -235 1
w 257 256 236 0.163544
w 257 256 -236 0.969194
w 257 -256 236 0.725808
w 257 -256 -236 0.205839
w 258 257 237 0.0544073
w 258 257 -237 0.993302
w 258 -257 237 0.0757939
w 258 -257 -237 0.634177
w 259 258 238 0.182067
w 259 258 -238 0.327932
w 259 -258 238 0.934842
w 259 -258 -238 0.803608
w 260 259 239 1
w 260 259 -239 1
w 260 -259 239 1
w 260 -259 -239 0
w 261 260 240 1
w 261 260 -240 1
w 261 -260 240 1
w 261 -260 -240 0
w 262 261 241 0
w 262 261 -241 1
w 262 -261 241 0
w 262 -261 -241 1
w 263 262 242 0.724907
w 263 262 -242 0.431236
w 263 -262 242 0.886558
w 263 -262 -242 0.450715
w 264 263 243 1
w 264 263 -243 1
w 264 -263 243 0
w 264 -263 -243 0
w 265 264 244 0
w 265 264 -244 0
w 265 -264 244 0
w 265 -264 -244 1
w 266 265 245 1
w 266 265 -245 1
w 266 -265 245 1
w 266 -265 -245 0
w 267 266 246 1
w 267 266 -246 1
w 267 -266 246 0
w 267 -266 -246 0
w 268 267 247 1
w 268 267 -247 0
w 268 -267 247 0
w 268 -267 -247 1
w 269 268 248 0.0711625
w 269 268 -248 0.978072
w 269 -268 248 0.392369
w 269 -268 -248 0.95772
w 270 269 249 0
w 270 269 -249 1
w 270 -269 249 1
w 270 -269 -249 0
w 271 270 250 1
w 271 270 -250 0
w 271 -270 250 1
w 271 -270 -250 1
w 272 271 251 1
w 272 271 -251 0
w 272 -271 251 0
w 272 -271 -251 1
w 273 272 252 1
w 273 272 -252 0
w 273 -272 252 1
w 273 -272 -252 1
w 274 253 0.454443
w 274 -253 0.907378
w 275 274 254 1
w 275 274 -254 0
w 275 -274 254 1
w 275 -274 -254 0
w 276 275 255 1
w 276 275 -255 0
w 276 -275 255 0
w 276 -275 -255 1
w 277 276 256 1
w 277 276 -256 1
w 277 -276 256 0
w 277 -276 -256 1
w 278 277 257 1
w 278 277 -257 0
w 278 -277 257 1
w 278 -277 -257 0
w 279 278 258 0
w 279 278 -258 1
w 279 -278 258 1
w 279 -278 -258 1
w 280 279 259 0.769654
w 280 279 -259 0.0730081
w 280 -279 259 0.290684
w 280 -279 -259 0.677031
w 281 280 260 0
w 281 280 -260 0
w 281 -280 260 0
w 281 -280 -260 1
w 282 281 261 0
w 282 281 -261 1
w 282 -281 261 1
w 282 -281 -261 1
w 283 282 262 0
w 283 282 -262 1
w 283 -282 262 0
w 283 -282 -262 0
w 284 283 263 0.734384
w 284 283 -263 0.750622
w 284 -283 263 0.544156
w 284 -283 -263 0.245765
w 285 284 264 0
w 285 284 -264 1
w 285 -284 264 1
w 285 -284 -264 0
w 286 285 265 0.551321
w 286 285 -265 0.439702
w 286 -285 265 0.182706
w 286 -285 -265 0.228353
w 287 286 266 0
w 287 286 -266 1
w 287 -286 266 0
w 287 -286 -266 0
w 288 287 267 1
w 288 287 -267 1
w 288 -287 267 0
w 288 -287 -267 0
w 289 288 268 1
w 289 288 -268 1
w 289 -288 268 0
w 289 -288 -268 1
w 290 289 269 0
w 290 289 -269 1
w 290 -289 269 0
w 290 -289 -269 1
w 291 290 270 1
w 291 290 -270 0
w 291 -290 270 0
w 291 -290 -270 0
w 292 291 271 0
w 292 291 -271 0
w 292 -291 271 1
w 292 -291 -271 1
w 293 292 272 0.442317
w 293 292 -272 0.863322
w 293 -292 272 0.171031
w 293 -292 -272 0.102277
w 294 293 273 0.697159
w 294 293 -273 0.977689
w 294 -293 273 0.491143
w 294 -293 -273 0.388299
w 295 274 0
w 295 -274 1
w 296 295 275 0.66172
w 296 295 -275 0.37178
w 296 -295 275 0.927724
w 296 -295 -275 0.829365
w 297 296 276 0
w 297 296 -276 1
w 297 -296 276 0
w 297 -296 -276 0
w 298 297 277 0
w 298 297 -277 0
w 298 -297 277 1
w 298 -297 -277 0
w 299 298 278 1
w 299 298 -278 0
w 299 -298 278 0
w 299 -298 -278 1
w 300 299 279 0
w 300 299 -279 1
w 300 -299 279 0
w 300 -299 -279 1
w 301 300 280 0.600363
w 301 300 -280 0.531065
w 301 -300 280 0.242336
w 301 -300 -280 0.722113
w 302 301 281 1
w 302 301 -281 0
w 302 -301 281 0
w 302 -301 -281 1
w 303 302 282 0
w 303 302 -282 0
w 303 -302 282 1
w 303 -302 -282 1
w 304 303 283 1
w 304 303 -283 1
w 304 -303 283 0
w 304 -303 -283 1
w 305 304 284 0
w 305 304 -284 1
w 305 -304 284 0
w 305 -304 -284 0
w 306 305 285 0
w 306 305 -285 0
w 306 -305 285 1
w 306 -305 -285 1
w 307 306 286 1
w 307 306 -286 1
w 307 -306 286 0
w 307 -306 -286 0
w 308 307 287 1
w 308 307 -287 0
w 308 -307 287 0
w 308 -307 -287 0
w 309 308 288 0
w 309 308 -288 0
w 309 -308 288 0
w 309 -308 -288 1
w 310 309 289 0.00340706
w 310 309 -289 0.138496
w 310 -309 289 0.448656
w 310 -309 -289 0.962505
w 311 310 290 0
w 311 310 -290 0
w 311 -310 290 1
w 311 -310 -290 0
w 312 311 291 0
w 312 311 -291 0
w 312 -311 291 0
w 312 -311 -291 1
w 313 312 292 0.84728
w 313 312 -292 0.62171
w 313 -312 292 0.209288
w 313 -312 -292 0.201892
w 314 313 293 0
w 314 313 -293 0
w 314 -313 293 1
w 314 -313 -293 0
w 315 314 294 0
w 315 314 -294 1
w 315 -314 294 0
w 315 -314 -294 0
w 316 295 1
w 316 -295 0
w 317 316 296 0.38324
w 317 316 -296 0.16107
w 317 -316 296 0.86266
w 317 -316 -296 0.059981
w 318 317 297 1
w 318 317 -297 1
w 318 -317 297 0
w 318 -317 -297 1
w 319 318 298 1
w 319 318 -298 0
w 319 -318 298 1
w 319 -318 -298 1
w 320 319 299 0
w 320 319 -299 0
w 320 -319 299 0
w 320 -319 -299 1
w 321 320 300 0
w 321 320 -300 0
w 321 -320 300 1
w 321 -320 -300 0
w 322 321 301 0
w 322 321 -301 0
w 322 -321 301 0
w 322 -321 -301 1
w 323 322 302 0
w 323 322 -302 1
w 323 -322 302 0
w 323 -322 -302 0
w 324 323 303 1
w 324 323 -303 0
w 324 -323 303 1
w 324 -323 -303 1
w 325 324 304 0.778348
w 325 324 -304 0.479052
w 325 -324 304 0.952274
w 325 -324 -304 0.878909
w 326 325 305 0.656983
w 326 325 -305 0.188759
w 326 -325 305 0.348043
w 326 -325 -305 0.497583
w 327 326 306 0
w 327 326 -306 1
w 327 -326 306 1
w 327 -326 -306 0
w 328 327 307 1
w 328 327 -307 0
w 328 -327 307 1
w 328 -327 -307 1
w 329 328 308 0.935886
w 329 328 -308 0.441974
w 329 -328 308 0.88253
w 329 -328 -308 0.982143
w 330 329 309 0
w 330 329 -309 0
w 330 -329 309 0
w 330 -329 -309 1
w 331 330 310 1
w 331 330 -310 0
w 331 -330 310 0
w 331 -330 -310 0
w 332 331 311 0
w 332 331 -311 0
w 332 -331 311 1
w 332 -331 -311 0
w 333 332 312 1
w 333 332 -312 0
w 333 -332 312 1
w 333 -332 -312 0
w 334 333 313 0.585489
w 334 333 -313 0.869255
w 334 -333 313 0.95355
w 334 -333 -313 0.337778
w 335 334 314 0
w 335 334 -314 1
w 335 -334 314 0
w 335 -334 -314 1
w 336 335 315 0
w 336 335 -315 1
w 336 -335 315 1
w 336 -335 -315 0
w 337 316 0
w 337 -316 1
w 338 337 317 1
w 338 337 -317 0
w 338 -337 317 1
w 338 -337 -317 0
w 339 338 318 0.658024
w 339 338 -318 0.501399
w 339 -338 318 0.755628
w 339 -338 -318 0.692516
w 340 339 319 0.955809
w 340 339 -319 0.809159
w 340 -339 319 0.719835
w 340 -339 -319 0.948686
w 341 340 320 1
w 341 340 -320 1
w 341 -340 320 1
w 341 -340 -320 0
w 342 341 321 0
w 342 341 -321 0
w 342 -341 321 1
w 342 -341 -321 1
w 343 342 322 0
w 343 342 -322 1
w 343 -342 322 0
w 343 -342 -322 1
w 344 343 323 1
w 344 343 -323 0
w 344 -343 323 0
w 344 -343 -323 1
w 345 344 324 0
w 345 344 -324 1
w 345 -344 324 0
w 345 -344 -324 1
w 346 345 325 1
w 346 345 -325 1
w 346 -345 325 0
w 346 -345 -325 1
w 347 346 326 1
w 347 346 -326 1
w 347 -346 326 1
w 347 -346 -326 0
w 348 347 327 0.987366
w 348 347 -327 0.996363
w 348 -347 327 0.536661
w 348 -347 -327 0.361366
w 349 348 328 1
w 349 348 -328 0
w 349 -348 328 0
w 349 -348 -328 1
w 350 349 329 0
w 350 349 -329 0
w 350 -349 329 0
w 350 -349 -329 1
w 351 350 330 0
w 351 350 -330 0
w 351 -350 330 1
w 351 -350 -330 1
w 352 351 331 0
w 352 351 -331 1
w 352 -351 331 0
w 352 -351 -331 0
w 353 352 332 1
w 353 352 -332 1
w 353 -352 332 0
w 353 -352 -332 1
w 354 353 333 0
w 354 353 -333 1
w 354 -353 333 1
w 354 -353 -333 0
w 355 354 334 0.324794
w 355 354 -334 0.792611
w 355 -354 334 0.972542
w 355 -354 -334 0.230316
w 356 355 335 1
w 356 355 -335 0
w 356 -355 335 1
w 356 -355 -335 1
w 357 356 336 1
w 357 356 -336 1
w 357 -356 336 0
w 357 -356 -336 1
w 358 337 0
w 358 -337 1
w 359 358 338 1
w 359 358 -338 0
w 359 -358 338 1
w 359 -358 -338 0
w 360 359 339 0
w 360 359 -339 1
w 360 -359 339 1
w 360 -359 -339 1
w 361 360 340 1
w 361 360 -340 0
w 361 -360 340 0
w 361 -360 -340 1
w 362 361 341 1
w 362 361 -341 1
w 362 -361 341 0
w 362 -361 -341 1
w 363 362 342 0.730585
w 363 362 -342 0.222318
w 363 -362 342 0.418472
w 363 -362 -342 0.399262
w 364 363 343 1
w 364 363 -343 0
w 364 -363 343 0
w 364 -363 -343 1
w 365 364 344 1
w 365 364 -344 0
w 365 -364 344 1
w 365 -364 -344 1
w 366 365 345 0
w 366 365 -345 0
w 366 -365 345 1
w 366 -365 -345 1
w 367 366 346 1
w 367 366 -346 1
w 367 -366 346 1
w 367 -366 -346 0
w 368 367 347 0
w 368 367 -347 1
w 368 -367 347 1
w 368 -367 -347 1
w 369 368 348 0
w 369 368 -348 0
w 369 -368 348 0
w 369 -368 -348 1
w 370 369 349 0.00584671
w 370 369 -349 0.0181295
w 370 -369 349 0.299396
w 370 -369 -349 0.760288
w 371 370 350 0.90805
w 371 370 -350 0.0544574
w 371 -370 350 0.330841
w 371 -370 -350 0.885287
w 372 371 351 1
w 372 371 -351 0
w 372 -371 351 0
w 372 -371 -351 0
w 373 372 352 0
w 373 372 -352 1
w 373 -372 352 1
w 373 -372 -352 1
w 374 373 353 1
w 374 373 -353 0
w 374 -373 353 1
w 374 -373 -353 1
w 375 374 354 1
w 375 374 -354 1
w 375 -374 354 1
w 375 -374 -354 0
w 376 375 355 1
w 376 375 -355 0
w 376 -375 355 0
w 376 -375 -355 0
w 377 376 356 1
w 377 376 -356 0
w 377 -376 356 0
w 377 -376 -356 1
w 378 377 357 0
w 378 377 -357 0
w 378 -377 357 1
w 378 -377 -357 0
w 379 358 0.872745
w 379 -358 0.866779
w 380 379 359 0
w 380 379 -359 0
w 380 -379 359 1
w 380 -379 -359 1
w 381 380 360 0
w 381 380 -360 0
w 381 -380 360 1
w 381 -380 -360 1
w 382 381 361 0
w 382 381 -361 1
w 382 -381 361 1
w 382 -381 -361 1
w 383 382 362 1
w 383 382 -362 0
w 383 -382 362 0
w 383 -382 -362 1
w 384 383 363 0.925519
w 384 383 -363 0.973063
w 384 -383 363 0.663309
w 384 -383 -363 0.214884
w 385 384 364 1
w 385 384 -364 0
w 385 -384 364 0
w 385 -384 -364 0
w 386 385 365 1
w 386 385 -365 0
w 386 -385 365 1
w 386 -385 -365 0
w 387 386 366 0.843632
w 387 386 -366 0.722364
w 387 -386 366 0.115952
w 387 -386 -366 0.477741
w 388 387 367 0
w 388 387 -367 0
w 388 -387 367 1
w 388 -387 -367 1
w 389 388 368 1
w 389 388 -368 1
w 389 -388 368 0
w 389 -388 -368 1
w 390 389 369 0.171714
w 390 389 -369 0.233573
w 390 -389 369 0.724867
w 390 -389 -369 0.835023
w 391 390 370 1
w 391 390 -370 0
w 391 -390 370 0
w 391 -390 -370 0
w 392 391 371 1
w 392 391 -371 1
w 392 -391 371 0
w 392 -391 -371 0
w 393 392 372 1
w 393 392 -372 0
w 393 -392 372 1
w 393 -392 -372 1
w 394 393 373 1
w 394 393 -373 0
w 394 -393 373 0
w 394 -393 -373 1
w 395 394 374 0.532718
w 395 394 -374 0.631437
w 395 -394 374 0.0920063
w 395 -394 -374 0.840772
w 396 395 375 0
w 396 395 -375 1
w 396 -395 375 0
w 396 -395 -375 0
w 397 396 376 0
w 397 396 -376 1
w 397 -396 376 0
w 397 -396 -376 0
w 398 397 377 1
w 398 397 -377 0
w 398 -397 377 0
w 398 -397 -377 1
w 399 398 378 1
w 399 398 -378 0
w 399 -398 378 0
w 399 -398 -378 1
w 400 379 0
w 400 -379 1
w 401 400 380 0
w 401 400 -380 1
w 401 -400 380 1
w 401 -400 -380 1
w 402 401 381 1
w 402 401 -381 0
w 402 -401 381 1
w 402 -401 -381 1
w 403 402 382 1
w 403 402 -382 0
w 403 -402 382 1
w 403 -402 -382 0
w 404 403 383 1
w 404 403 -383 1
w 404 -403 383 0
w 404 -403 -383 0
w 405 404 384 0.593636
w 405 404 -384 0.552398
w 405 -404 384 0.927108
w 405 -404 -384 0.509616
w 406 405 385 0
w 406 405 -385 0
w 406 -405 385 0
w 406 -405 -385 1
w 407 406 386 1
w 407 406 -386 0
w 407 -406 386 0
w 407 -406 -386 0
w 408 407 387 0.49084
w 408 407 -387 0.474153
w 408 -407 387 0.480529
w 408 -407 -387 0.947141
w 409 408 388 0
w 409 408 -388 1
w 409 -408 388 1
w 409 -408 -388 0
w 410 409 389 0
w 410 409 -389 1
w 410 -409 389 0
w 410 -409 -389 1
w 411 410 390 0.0501562
w 411 410 -390 0.762716
w 411 -410 390 0.74854
w 411 -410 -390 0.559772
w 412 411 391 0.320093
w 412 411 -391 0.696753
w 412 -411 391 0.349929
w 412 -411 -391 0.357988
w 413 412 392 0
w 413 412 -392 0
w 413 -412 392 0
w 413 -412 -392 1
w 414 413 393 0.762202
w 414 413 -393 0.517357
w 414 -413 393 0.329512
w 414 -413 -393 0.242732
w 415 414 394 1
w 415 414 -394 0
w 415 -414 394 1
w 415 -414 -394 0
w 416 415 395 0
w 416 415 -395 1
w 416 -415 395 1
w 416 -415 -395 1
w 417 416 396 1
w 417 416 -396 1
w 417 -416 396 0
w 417 -416 -396 1
w 418 417 397 1
w 418 417 -397 1
w 418 -417 397 0
w 418 -417 -397 0
w 419 418 398 1
w 419 418 -398 0
w 419 -418 398 1
w 419 -418 -398 0
w 420 419 399 0
w 420 419 -399 0
w 420 -419 399 0
w 420 -419 -399 1
w 421 400 1
w 421 -400 0
w 422 421 401 0
w 422 421 -401 1
w 422 -421 401 1
w 422 -421 -401 1
w 423 422 402 0.984051
w 423 422 -402 0.760491
w 423 -422 402 0.396369
w 423 -422 -402 0.151963
w 424 423 403 1
w 424 423 -403 0
w 424 -423 403 0
w 424 -423 -403 0
w 425 424 404 1
w 425 424 -404 0
w 425 -424 404 1
w 425 -424 -404 0
w 426 425 405 0
w 426 425 -405 0
w 426 -425 405 1
w 426 -425 -405 0
w 427 426 406 1
w 427 426 -406 0
w 427 -426 406 0
w 427 -426 -406 1
w 428 427 407 0
w 428 427 -407 1
w 428 -427 407 1
w 428 -427 -407 1
w 429 428 408 0.0427531
w 429 428 -408 0.874109
w 429 -428 408 0.612723
w 429 -428 -408 0.439122
w 430 429 409 1
w 430 429 -409 0
w 430 -429 409 0
w 430 -429 -409 1
w 431 430 410 0.555729
w 431 430 -410 0.416097
w 431 -430 410 0.900042
w 431 -430 -410 0.200984
w 432 431 411 0
w 432 431 -411 1
w 432 -431 411 0
w 432 -431 -411 1
w 433 432 412 0.62084
w 433 432 -412 0.468752
w 433 -432 412 0.669391
w 433 -432 -412 0.54806
w 434 433 413 0
w 434 433 -413 1
w 434 -433 413 0
w 434 -433 -413 1
w 435 434 414 0
w 435 434 -414 1
w 435 -434 414 0
w 435 -434 -414 0
w 436 435 415 0.649499
w 436 435 -415 0.250683
w 436 -435 415 0.605976
w 436 -435 -415 0.786135
w 437 436 416 1
w 437 436 -416 1
w 437 -436 416 1
w 437 -436 -416 0
w 438 437 417 1
w 438 437 -417 0
w 438 -437 417 0
w 438 -437 -417 0
w 439 438 418 0
w 439 438 -418 1
w 439 -438 418 1
w 439 -438 -418 0
w 440 439 419 0
w 440 439 -419 1
w 440 -439 419 1
w 440 -439 -419 0
w 441 440 420 1
w 441 440 -420 0
w 441 -440 420 1
w 441 -440 -420 1